p wcnf 10 38 253
253 1 2 0
253 1 3 0
253 1 5 0
253 1 7 0
253 1 8 0
253 2 3 0
253 2 4 0
253 2 5 0
253 2 6 0
253 2 7 0
253 2 8 0
253 3 6 0
253 3 7 0
253 3 8 0
253 3 9 0
253 4 5 0
253 4 6 0
253 4 8 0
253 4 9 0
253 4 10 0
253 5 6 0
253 5 7 0
253 5 10 0
253 6 7 0
253 7 8 0
253 7 10 0
253 8 10 0
253 9 10 0
23 -1 0
22 -2 0
24 -3 0
23 -4 0
25 -5 0
27 -6 0
26 -7 0
27 -8 0
27 -9 0
28 -10 0
